1 -1 2 0
1 -3 -4 0
1 3 -1 0
1 3 -5 0
1 -6 -7 0
1 -6 -8 0
1 -9 10 0
1 -4 -11 0
1 4 12 0
1 -4 3 0
1 -4 13 0
1 -4 1 0
1 -5 14 0
1 5 -9 0
1 -5 15 0
1 -10 -11 0
1 10 -16 0
1 -10 -17 0
1 -10 18 0
1 10 -1 0
1 -2 -16 0
1 -2 -15 0
1 2 18 0
1 -2 6 0
1 -2 19 0
1 -20 21 0
1 -20 22 0
1 14 7 0
1 14 -23 0
1 -14 -20 0
1 -14 5 0
1 24 12 0
1 -24 -25 0
1 24 26 0
1 24 4 0
1 -24 21 0
1 -24 23 0
1 -24 -18 0
1 -24 27 0
1 -12 -7 0
1 -12 -8 0
1 12 28 0
1 12 -4 0
1 -12 -24 0
1 12 -29 0
1 23 30 0
1 23 8 0
1 -23 12 0
1 23 9 0
1 23 -6 0
1 8 30 0
1 8 -23 0
1 8 -6 0
1 -21 -11 0
1 -21 -14 0
1 21 -31 0
1 32 -33 0
1 32 29 0
1 -33 29 0
1 34 -8 0
1 34 27 0
1 -30 35 0
1 -27 -30 0
1 27 24 0
1 26 12 0
1 -26 32 0
1 -26 24 0
1 -29 -25 0
1 29 -36 0
1 -29 -34 0
1 25 37 0
1 22 16 0
1 16 -14 0
1 -16 -38 0
1 -16 -10 0
1 16 -22 0
1 18 28 0
1 -18 -39 0
1 -18 2 0
1 -28 12 0
1 28 38 0
1 -28 40 0
1 28 -39 0
1 -28 2 0
1 -38 35 0
1 41 11 0
1 -41 31 0
1 -41 -18 0
1 -42 -28 0
1 42 16 0
1 -42 43 0
1 43 -22 0
1 -15 -21 0
1 -15 -5 0
1 11 38 0
1 11 44 0
1 11 -45 0
1 11 -5 0
1 -31 7 0
1 -31 -21 0
1 -35 -46 0
1 35 21 0
1 -35 -41 0
1 -40 -11 0
1 40 36 0
1 -40 37 0
1 -40 -18 0
1 39 -35 0
1 39 -40 0
1 39 36 0
1 39 31 0
1 -44 -28 0
1 37 46 0
1 -37 -7 0
1 37 -23 0
1 37 29 0
1 -37 -19 0
1 47 8 0
1 47 -25 0
1 47 21 0
1 47 29 0
1 36 46 0
1 36 40 0
1 48 25 0
1 -48 40 0
1 -48 -17 0
1 13 46 0
1 -13 -4 0
1 13 47 0
1 46 -35 0
1 46 -37 0
1 -46 -47 0
1 -17 10 0
1 -17 -19 0
1 -19 37 0
1 19 -31 0
1 -19 -48 0
